words_hard_train/9983.qaiger
aag 102 16 0 1 86
2
4
8
12
16
20
24
28
72
74
78
82
86
90
94
98
205
6 2 4
10 6 8
14 10 12
18 14 16
22 18 20
26 22 24
30 26 29
32 27 28
34 31 33
36 3 5
38 37 7
40 7 9
42 41 11
44 39 43
46 11 13
48 47 15
50 44 49
52 15 17
54 53 19
56 50 55
58 19 21
60 59 23
62 56 61
64 23 25
66 65 27
68 62 67
70 35 68
76 73 75
80 76 79
84 80 83
88 84 87
92 88 91
96 92 95
100 96 99
102 97 98
104 101 103
106 89 90
108 107 93
110 57 60
112 111 63
114 108 112
116 93 94
118 117 97
120 63 66
122 121 69
124 118 122
126 115 125
128 85 86
130 129 89
132 51 54
134 133 57
136 131 135
138 109 113
140 137 139
142 81 82
144 143 85
146 45 48
148 147 51
150 144 148
152 130 134
154 151 153
156 38 42
158 157 45
160 159 78
162 161 81
164 158 79
166 72 74
168 167 38
170 169 77
172 165 170
174 162 173
176 145 149
178 174 177
180 154 179
182 140 181
184 126 183
186 119 123
188 185 187
190 105 188
192 71 191
194 104 189
196 34 69
198 195 197
200 192 199
202 70 190
204 201 203
i0 2 y2[0]
i1 2 y2[1]
i2 2 y2[2]
i3 2 y2[3]
i4 2 y2[4]
i5 2 y2[5]
i6 2 y2[6]
i7 2 y2[7]
i8 1 x1[0]
i9 1 x1[1]
i10 1 x1[2]
i11 1 x1[3]
i12 1 x1[4]
i13 1 x1[5]
i14 1 x1[6]
i15 1 x1[7]
o0 bv[0]
c
simplified
  >
    add
      and
        1
        2 y2
      2 y2
    unary minus
      1 x1
