words_hard_train/9983.qaiger.qdimacs
p cnf 102 259
a 36 37 39 41 43 45 47 49 0
e 1 2 3 4 5 6 7 8 9 10 11 12 13 14 15 16 17 18 19 20 21 22 23 24 25 26 27 28 29 30 31 32 33 34 35 38 40 42 44 46 48 50 51 52 53 54 55 56 57 58 59 60 61 62 63 64 65 66 67 68 69 70 71 72 73 74 75 76 77 78 79 80 81 82 83 84 85 86 87 88 89 90 91 92 93 94 95 96 97 98 99 100 101 102 0
-1 -2 3 0
1 -3 0
2 -3 0
-3 -4 5 0
3 -5 0
4 -5 0
-5 -6 7 0
5 -7 0
6 -7 0
-7 -8 9 0
7 -9 0
8 -9 0
-9 -10 11 0
9 -11 0
10 -11 0
-11 -12 13 0
11 -13 0
12 -13 0
-13 14 15 0
13 -15 0
-14 -15 0
13 -14 16 0
-13 -16 0
14 -16 0
15 16 17 0
-15 -17 0
-16 -17 0
1 2 18 0
-1 -18 0
-2 -18 0
18 3 19 0
-18 -19 0
-3 -19 0
3 4 20 0
-3 -20 0
-4 -20 0
20 5 21 0
-20 -21 0
-5 -21 0
19 21 22 0
-19 -22 0
-21 -22 0
5 6 23 0
-5 -23 0
-6 -23 0
23 7 24 0
-23 -24 0
-7 -24 0
-22 24 25 0
22 -25 0
-24 -25 0
7 8 26 0
-7 -26 0
-8 -26 0
26 9 27 0
-26 -27 0
-9 -27 0
-25 27 28 0
25 -28 0
-27 -28 0
9 10 29 0
-9 -29 0
-10 -29 0
29 11 30 0
-29 -30 0
-11 -30 0
-28 30 31 0
28 -31 0
-30 -31 0
11 12 32 0
-11 -32 0
-12 -32 0
32 13 33 0
-32 -33 0
-13 -33 0
-31 33 34 0
31 -34 0
-33 -34 0
17 -34 35 0
-17 -35 0
34 -35 0
36 37 38 0
-36 -38 0
-37 -38 0
-38 39 40 0
38 -40 0
-39 -40 0
-40 41 42 0
40 -42 0
-41 -42 0
-42 43 44 0
42 -44 0
-43 -44 0
-44 45 46 0
44 -46 0
-45 -46 0
-46 47 48 0
46 -48 0
-47 -48 0
-48 49 50 0
48 -50 0
-49 -50 0
48 -49 51 0
-48 -51 0
49 -51 0
50 51 52 0
-50 -52 0
-51 -52 0
44 -45 53 0
-44 -53 0
45 -53 0
53 46 54 0
-53 -54 0
-46 -54 0
28 -30 55 0
-28 -55 0
30 -55 0
55 31 56 0
-55 -56 0
-31 -56 0
-54 -56 57 0
54 -57 0
56 -57 0
46 -47 58 0
-46 -58 0
47 -58 0
58 48 59 0
-58 -59 0
-48 -59 0
31 -33 60 0
-31 -60 0
33 -60 0
60 34 61 0
-60 -61 0
-34 -61 0
-59 -61 62 0
59 -62 0
61 -62 0
57 62 63 0
-57 -63 0
-62 -63 0
42 -43 64 0
-42 -64 0
43 -64 0
64 44 65 0
-64 -65 0
-44 -65 0
25 -27 66 0
-25 -66 0
27 -66 0
66 28 67 0
-66 -67 0
-28 -67 0
65 67 68 0
-65 -68 0
-67 -68 0
54 56 69 0
-54 -69 0
-56 -69 0
68 69 70 0
-68 -70 0
-69 -70 0
40 -41 71 0
-40 -71 0
41 -71 0
71 42 72 0
-71 -72 0
-42 -72 0
22 -24 73 0
-22 -73 0
24 -73 0
73 25 74 0
-73 -74 0
-25 -74 0
-72 -74 75 0
72 -75 0
74 -75 0
-65 -67 76 0
65 -76 0
67 -76 0
75 76 77 0
-75 -77 0
-76 -77 0
-19 -21 78 0
19 -78 0
21 -78 0
78 22 79 0
-78 -79 0
-22 -79 0
79 -39 80 0
-79 -80 0
39 -80 0
80 40 81 0
-80 -81 0
-40 -81 0
-79 39 82 0
79 -82 0
-39 -82 0
-36 -37 83 0
36 -83 0
37 -83 0
83 -19 84 0
-83 -84 0
19 -84 0
84 38 85 0
-84 -85 0
-38 -85 0
82 -85 86 0
-82 -86 0
85 -86 0
-81 86 87 0
81 -87 0
-86 -87 0
72 74 88 0
-72 -88 0
-74 -88 0
-87 88 89 0
87 -89 0
-88 -89 0
-77 89 90 0
77 -90 0
-89 -90 0
-70 90 91 0
70 -91 0
-90 -91 0
-63 91 92 0
63 -92 0
-91 -92 0
59 61 93 0
-59 -93 0
-61 -93 0
92 93 94 0
-92 -94 0
-93 -94 0
52 -94 95 0
-52 -95 0
94 -95 0
35 95 96 0
-35 -96 0
-95 -96 0
-52 94 97 0
52 -97 0
-94 -97 0
-17 34 98 0
17 -98 0
-34 -98 0
97 98 99 0
-97 -99 0
-98 -99 0
-96 99 100 0
96 -100 0
-99 -100 0
-35 -95 101 0
35 -101 0
95 -101 0
100 101 102 0
-100 -102 0
-101 -102 0
-102 0
